377 378 381 
406 407 410 
436 437 440 
466 467 470 
496 497 500 
526 527 531 
559 560 564 
589 590 594 
619 620 624 
649 650 654 
679 680 684 
709 710 714 
739 740 744 
769 770 774 
800 801 805 
830 831 835 
860 861 865 
890 891 895 
920 921 925 
950 951 955 
980 981 985 
1010 1011 1015 
1040 1041 1045 
1070 1071 1075 
1102 1103 1107 
1131 1132 1136 
1159 1160 1164 
1189 1190 1194 
1219 1220 1224 
1249 1250 1254 
1279 1280 1284 
1309 1310 1314 
1339 1340 1344 
1369 1370 1374 
1399 1400 1404 
1429 1430 1434 
1459 1460 1464 
